 vasp.5.4.1 24Jun15 (build Jan 19 2018 10:32:04) complex

 executed on           IFC91_ompi date 2020.01.29  15:20:30

 INCAR:
 POTCAR:    PAW_PBE Pt 04Feb2005

 POTCAR:    PAW_PBE Pt 04Feb2005
   VRHFIN =Pt: s1d9

   TITEL  = PAW_PBE Pt 04Feb2005
   POMASS =  195.080; ZVAL   =   10.000    mass and valenz
   ENMAX  =  230.283; ENMIN  =  172.712 eV

 Optimization of the real space projectors (new method)

 maximal supplied QI-value         = 14.36
 optimisation between [QCUT,QGAM] = [ 10.20, 20.39] = [ 29.12,116.47] Ry
 Optimized for a Real-space Cutoff    1.51 Angstroem

   l    n(q)    QCUT    max X(q) W(low)/X(q) W(high)/X(q)  e(spline)
   2      8    10.197    66.195    0.45E-03    0.45E-03    0.14E-06
   2      8    10.197    64.643    0.46E-03    0.46E-03    0.14E-06
   0      9    10.197    95.520    0.15E-03    0.11E-03    0.54E-07
   0      9    10.197    63.403    0.15E-03    0.11E-03    0.52E-07
   1      9    10.197    19.961    0.13E-03    0.17E-03    0.77E-07
   1      9    10.197    13.289    0.10E-03    0.15E-03    0.67E-07
  PAW_PBE Pt 04Feb2005                  :

 POSCAR: Pt slab
  positions in direct lattice
  velocities in cartesian coordinates
 exchange correlation table for  LEXCH =        8
   RHO(1)=    0.500       N(1)  =     2000
   RHO(2)=  100.500       N(2)  =     4000

 VTST: version 3.1, (03/28/14)

 CHAIN: initializing optimizer

 OPT: Using VASP Conjugate-Gradient optimizer
 CHAIN: Read ICHAIN            0

 POSCAR: Pt slab
  positions in direct lattice
  velocities in cartesian coordinates

 ion  position               nearest neighbor table
   1  0.000  0.000  0.000-   6 2.80   5 2.80  17 2.80  20 2.80   2 2.80   4 2.80  32 2.80  16 2.80
                            13 2.80
   2  0.250  0.000  0.000-   7 2.80   6 2.80  17 2.80  18 2.80   1 2.80   3 2.80  29 2.80  14 2.80
                            13 2.80
   3  0.500  0.000  0.000-   8 2.80   7 2.80  18 2.80  19 2.80   2 2.80   4 2.80  30 2.80  15 2.80
                            14 2.80
   4  0.750  0.000  0.000-   5 2.80   8 2.80  19 2.80  20 2.80   1 2.80   3 2.80  31 2.80  16 2.80
                            15 2.80
   5  1.000  0.250  0.000-   9 2.80   4 2.80  10 2.80   1 2.80  20 2.80  24 2.80  21 2.80   8 2.80
                             6 2.80
   6  0.250  0.250  0.000-  10 2.80   1 2.80  11 2.80   2 2.80  17 2.80  21 2.80  22 2.80   7 2.80
                             5 2.80
   7  0.500  0.250  0.000-  11 2.80   2 2.80  12 2.80   3 2.80  18 2.80  22 2.80  23 2.80   8 2.80
                             6 2.80
   8  0.750  0.250  0.000-  12 2.80   9 2.80   3 2.80   4 2.80  19 2.80  23 2.80  24 2.80   7 2.80
                             5 2.80
   9  1.000  0.500  0.000-   5 2.80   8 2.80  14 2.80  13 2.80  24 2.80  25 2.80  28 2.80  12 2.80
                            10 2.80
  10  0.250  0.500  0.000-   6 2.80   5 2.80  15 2.80  14 2.80  21 2.80  25 2.80  26 2.80  11 2.80
                             9 2.80
  11  0.500  0.500  0.000-   7 2.80   6 2.80  16 2.80  15 2.80  22 2.80  26 2.80  27 2.80  12 2.80
                            10 2.80
  12  0.750  0.500  0.000-   8 2.80   7 2.80  13 2.80  16 2.80  23 2.80  27 2.80  28 2.80  11 2.80
                             9 2.80
  13  1.000  0.750  0.000-  12 2.80   9 2.80  28 2.80  29 2.80  32 2.80  16 2.80  14 2.80   2 2.80
                             1 2.80
  14  0.250  0.750  0.000-   9 2.80  10 2.80  25 2.80  29 2.80  30 2.80  15 2.80  13 2.80   3 2.80
                             2 2.80
  15  0.500  0.750  0.000-  10 2.80  11 2.80  26 2.80  30 2.80  31 2.80  16 2.80  14 2.80   4 2.80
                             3 2.80
  16  0.750  0.750  0.000-  11 2.80  12 2.80  27 2.80  31 2.80  32 2.80  15 2.80  13 2.80   4 2.80
                             1 2.80
  17  0.167  0.083  0.100-  33 2.75  45 2.77  34 2.77  22 2.80  21 2.80   6 2.80   1 2.80   2 2.80
                            20 2.80  18 2.80  32 2.80  29 2.80
  18  0.417  0.083  0.100-  34 2.75  46 2.76  35 2.77  23 2.80  22 2.80   7 2.80   2 2.80   3 2.80
                            19 2.80  17 2.80  30 2.80  29 2.80
  19  0.667  0.083  0.100-  35 2.76  47 2.76  36 2.77  24 2.80  23 2.80   8 2.80   3 2.80   4 2.80
                            20 2.80  18 2.80  31 2.80  30 2.80
  20  0.917  0.083  0.100-  36 2.75  48 2.77  33 2.77  24 2.80  21 2.80   5 2.80   1 2.80   4 2.80
                            19 2.80  17 2.80  32 2.80  31 2.80
  21  0.167  0.333  0.100-  33 2.77  37 2.78  38 2.78  20 2.80  17 2.80  25 2.80  26 2.80  10 2.80
                             6 2.80   5 2.80  24 2.80  22 2.80
  22  0.417  0.333  0.100-  34 2.76  39 2.77  38 2.78  18 2.80  17 2.80  26 2.80  27 2.80  11 2.80
                             7 2.80   6 2.80  23 2.80  21 2.80
  23  0.667  0.333  0.100-  39 2.75  40 2.77  35 2.77  19 2.80  18 2.80  27 2.80  28 2.80  12 2.80
                             8 2.80   7 2.80  24 2.80  22 2.80
  24  0.917  0.333  0.100-  40 2.75  36 2.76  19 2.80  20 2.80  28 2.80  25 2.80   9 2.80   5 2.80
                             8 2.80  21 2.80  23 2.80  37 2.81
  25  0.167  0.583  0.100-  41 2.76  37 2.79  42 2.79  30 2.80  21 2.80  24 2.80  29 2.80  14 2.80
                             9 2.80  10 2.80  28 2.80  26 2.80
  26  0.417  0.583  0.100-  43 2.77  42 2.77  38 2.78  31 2.80  22 2.80  21 2.80  30 2.80  15 2.80
                            10 2.80  11 2.80  27 2.80  25 2.80
  27  0.667  0.583  0.100-  43 2.75  39 2.76  44 2.77  32 2.80  23 2.80  22 2.80  31 2.80  16 2.80
                            11 2.80  12 2.80  28 2.80  26 2.80
  28  0.917  0.583  0.100-  44 2.75  40 2.77  41 2.77  29 2.80  24 2.80  23 2.80  32 2.80  13 2.80
                             9 2.80  12 2.80  27 2.80  25 2.80
  29  0.167  0.833  0.100-  45 2.75  41 2.77  46 2.77  28 2.80  25 2.80  14 2.80  13 2.80  32 2.80
                            30 2.80   2 2.80  18 2.80  17 2.80
  30  0.417  0.833  0.100-  46 2.75  47 2.76  42 2.80  25 2.80  26 2.80  15 2.80  14 2.80  31 2.80
                            29 2.80   3 2.80  19 2.80  18 2.80
  31  0.667  0.833  0.100-  47 2.75  43 2.76  48 2.77  26 2.80  27 2.80  16 2.80  15 2.80  32 2.80
                            30 2.80   4 2.80  20 2.80  19 2.80
  32  0.917  0.833  0.100-  48 2.76  44 2.77  45 2.77  27 2.80  28 2.80  16 2.80  13 2.80  31 2.80
                            29 2.80   1 2.80  20 2.80  17 2.80
  33  0.084  0.166  0.198-  17 2.75  20 2.77  21 2.77  53 2.78  54 2.79  48 2.80  45 2.80  36 2.80
                            49 2.80  37 2.80  38 2.80  34 2.81
  34  0.335  0.166  0.198-  18 2.75  22 2.76  17 2.77  54 2.77  39 2.79  35 2.80  46 2.80  45 2.80
                            50 2.81  33 2.81  55 2.81  38 2.81
  35  0.584  0.166  0.198-  19 2.76  23 2.77  18 2.77  55 2.79  47 2.79  36 2.80  39 2.80  34 2.80
                            51 2.80  40 2.80  46 2.80  56 2.80
  36  0.834  0.167  0.198-  20 2.75  24 2.76  19 2.77  53 2.79  40 2.79  56 2.79  35 2.80  47 2.80
                            33 2.80  48 2.80  52 2.81  37 2.81
  37  0.086  0.417  0.199-  42 2.77  57 2.77  38 2.78  21 2.78  53 2.78  25 2.79  41 2.80  33 2.80
                            24 2.81  40 2.81  36 2.81  58 2.85
  38  0.334  0.417  0.199-  37 2.78  42 2.78  26 2.78  22 2.78  54 2.78  21 2.78  59 2.79  43 2.80
                            33 2.80  34 2.81  39 2.81  58 2.83
  39  0.584  0.416  0.198-  23 2.75  27 2.76  22 2.77  59 2.77  34 2.79  35 2.80  40 2.80  44 2.80
                            55 2.80  43 2.81  60 2.81  38 2.81
  40  0.834  0.416  0.198-  24 2.75  28 2.77  23 2.77  57 2.79  36 2.79  60 2.79  35 2.80  39 2.80
                            44 2.80  41 2.80  56 2.80  37 2.81
  41  0.084  0.666  0.198-  25 2.76  29 2.77  28 2.77  61 2.79  57 2.79  62 2.80  44 2.80  45 2.80
                            42 2.80  40 2.80  46 2.80  37 2.80
  42  0.333  0.665  0.199-  37 2.77  26 2.77  62 2.77  38 2.78  63 2.79  25 2.79  30 2.80  41 2.80
                            43 2.80  46 2.81  47 2.81  58 2.84
  43  0.585  0.666  0.198-  27 2.75  31 2.76  26 2.77  63 2.78  59 2.79  48 2.80  44 2.80  38 2.80
                            47 2.80  42 2.80  39 2.81  64 2.81
  44  0.834  0.666  0.198-  28 2.75  32 2.77  27 2.77  64 2.79  41 2.80  43 2.80  60 2.80  39 2.80
                            40 2.80  45 2.80  61 2.80  48 2.81
  45  0.085  0.916  0.198-  29 2.75  17 2.77  32 2.77  49 2.79  41 2.80  33 2.80  61 2.80  46 2.80
                            50 2.80  34 2.80  44 2.80  48 2.81
  46  0.335  0.916  0.198-  30 2.75  18 2.76  29 2.77  62 2.79  47 2.79  50 2.79  35 2.80  34 2.80
                            45 2.80  41 2.80  51 2.81  42 2.81
  47  0.584  0.917  0.198-  31 2.75  19 2.76  30 2.76  63 2.78  46 2.79  51 2.79  35 2.79  36 2.80
                            48 2.80  43 2.80  52 2.81  42 2.81
  48  0.834  0.916  0.198-  32 2.76  20 2.77  31 2.77  52 2.79  43 2.80  33 2.80  64 2.80  47 2.80
                            36 2.80  49 2.80  45 2.81  44 2.81
  49  0.002  0.999  0.298-  64 2.79  45 2.79  54 2.79  53 2.79  61 2.79  52 2.80  50 2.80  33 2.80
                            48 2.80
  50  0.252  0.999  0.298-  54 2.77  62 2.78  46 2.79  61 2.80  51 2.80  55 2.80  49 2.80  45 2.80
                            34 2.81
  51  0.502  1.000  0.298-  55 2.79  63 2.79  62 2.79  47 2.79  56 2.79  35 2.80  50 2.80  52 2.80
                            46 2.81
  52  0.752  0.999  0.298-  63 2.78  53 2.78  48 2.79  51 2.80  49 2.80  56 2.80  64 2.80  36 2.81
                            47 2.81
  53  0.000  0.247  0.297-  52 2.78  33 2.78  37 2.78  36 2.79  49 2.79  56 2.79  54 2.82  57 2.82
                            58 2.83
  54  0.252  0.247  0.297-  34 2.77  50 2.77  38 2.78  33 2.79  49 2.79  55 2.79  53 2.82  58 2.82
                            59 2.83
  55  0.502  0.249  0.298-  35 2.79  59 2.79  51 2.79  54 2.79  56 2.79  50 2.80  60 2.80  39 2.80
                            34 2.81
  56  0.752  0.249  0.298-  53 2.79  57 2.79  55 2.79  36 2.79  51 2.79  60 2.80  52 2.80  35 2.80
                            40 2.80
  57  0.000  0.499  0.298-  37 2.77  60 2.78  40 2.79  41 2.79  56 2.79  61 2.79  62 2.82  53 2.82
                            58 2.83
  58  0.253  0.499  0.302-  59 2.82  54 2.82  63 2.82  53 2.83  62 2.83  57 2.83  38 2.83  42 2.84
                            37 2.85
  59  0.505  0.499  0.297-  39 2.77  60 2.77  43 2.79  38 2.79  55 2.79  64 2.79  58 2.82  63 2.82
                            54 2.83
  60  0.752  0.499  0.298-  59 2.77  57 2.78  40 2.79  61 2.80  44 2.80  56 2.80  64 2.80  55 2.80
                            39 2.81
  61  0.002  0.749  0.298-  41 2.79  64 2.79  49 2.79  62 2.79  57 2.79  60 2.80  50 2.80  45 2.80
                            44 2.80
  62  0.252  0.751  0.298-  42 2.77  50 2.78  46 2.79  51 2.79  61 2.79  41 2.80  57 2.82  63 2.82
                            58 2.83
  63  0.504  0.751  0.297-  52 2.78  43 2.78  47 2.78  42 2.79  64 2.79  51 2.79  62 2.82  59 2.82
                            58 2.82
  64  0.753  0.750  0.298-  49 2.79  44 2.79  61 2.79  59 2.79  63 2.79  48 2.80  60 2.80  52 2.80
                            43 2.81

  LATTYP: Found a hexagonal cell.
 ALAT       =    11.2000000000
[...]
  Alpha Z  1567.72817  1567.72817  1567.72817
  Ewald  228217.49881228209.89315************   -13.92843     3.91650   -13.60680
  Hartree238963.12513238960.81886************    -4.21642     0.91066    -3.14550
  E(xc)   -2831.64871 -2831.69868 -2850.66092    -0.09149     0.02507    -0.09149
  Local  ************************487845.84346    15.39147    -3.77599    13.00115
  n-local   297.87528   297.26890   263.23336    -0.99188     0.39275    -1.44390
  augment  3336.76112  3337.45594  3434.28193     1.28049    -0.47445     1.68612
  Kinetic  9217.16066  9218.47784  9477.11820     2.43730    -0.88922     3.18152
  Fock        0.00000     0.00000     0.00000     0.00000     0.00000     0.00000
  vdW       -22.75318   -22.75480   -15.92294    -0.00233     0.00083    -0.00289
  Total     -77.89724   -78.03784    -1.61955    -0.12130     0.10615    -0.42178
  in kB     -50.25203   -50.34273    -1.04478    -0.07825     0.06848    -0.27209

 VOLUME and BASIS-vectors are now :
  energy-cutoff  :      400.00
  volume of cell :     2483.59
      direct lattice vectors                 reciprocal lattice vectors
    11.200000000  0.000000000  0.000000000     0.089285714  0.051549131  0.000000000
    -5.600000000  9.699484522  0.000000000     0.000000000  0.103098262  0.000000000
     0.000000000  0.000000000 22.861904266     0.000000000  0.000000000  0.043740888

  length of vectors
    11.200000000 11.200000000 22.861904266     0.103098262  0.103098262  0.043740888

 FORCES acting on ions
    electron-ion (+dipol)            ewald-force                    non-local-force                 convergence-correction
   -.264E-01 -.145E-01 0.240E+04   0.118E-01 0.179E-01 -.240E+04   0.448E-02 -.139E-02 -.115E+01   0.295E-02 0.636E-03 -.637E-02
   -.432E-01 0.122E-01 0.240E+04   0.312E-01 -.628E-02 -.240E+04   0.437E-02 -.148E-02 -.115E+01   0.781E-03 -.186E-02 -.288E-02
   -.285E-03 0.156E-02 0.240E+04   -.890E-02 0.323E-02 -.240E+04   0.477E-02 -.189E-02 -.115E+01   -.345E-02 0.194E-03 -.745E-02
   0.191E-01 -.151E-01 0.240E+04   -.319E-01 0.192E-01 -.240E+04   0.471E-02 -.137E-02 -.115E+01   -.291E-03 -.257E-03 -.779E-02
   -.461E-03 -.242E-01 0.240E+04   -.111E-01 0.294E-01 -.240E+04   0.473E-02 -.923E-03 -.115E+01   -.138E-02 -.273E-02 -.705E-02
   -.156E-01 -.437E-02 0.240E+04   0.118E-02 0.128E-01 -.240E+04   0.461E-02 -.108E-02 -.115E+01   0.299E-02 -.558E-02 -.643E-02
   -.343E-01 0.177E-01 0.240E+04   0.212E-01 -.129E-01 -.240E+04   0.457E-02 -.974E-03 -.115E+01   0.102E-02 -.221E-02 -.781E-02
   -.137E-02 -.297E-02 0.240E+04   -.929E-02 0.487E-02 -.240E+04   0.501E-02 -.104E-02 -.115E+01   -.263E-02 0.853E-03 -.880E-02
   -.211E-01 -.163E-02 0.240E+04   0.119E-01 0.876E-03 -.240E+04   0.502E-02 -.106E-02 -.115E+01   -.451E-02 0.345E-02 -.544E-02
   0.796E-02 -.111E-01 0.240E+04   -.183E-01 0.130E-01 -.240E+04   0.465E-02 -.131E-02 -.115E+01   -.195E-02 0.158E-02 -.912E-02
   -.175E-02 0.144E-01 0.240E+04   -.144E-01 -.114E-01 -.240E+04   0.438E-02 -.110E-02 -.115E+01   0.480E-02 -.475E-03 -.840E-02
   -.373E-01 0.307E-01 0.240E+04   0.229E-01 -.291E-01 -.240E+04   0.488E-02 -.834E-03 -.115E+01   0.167E-02 0.350E-03 -.611E-02
   -.575E-01 0.224E-01 0.240E+04   0.417E-01 -.186E-01 -.240E+04   0.460E-02 -.123E-02 -.115E+01   0.413E-02 -.666E-03 -.497E-02
   -.152E-01 0.912E-02 0.240E+04   0.747E-02 -.895E-02 -.240E+04   0.467E-02 -.146E-02 -.115E+01   -.458E-02 0.427E-02 -.381E-02
   0.260E-01 0.473E-02 0.240E+04   -.378E-01 -.367E-02 -.240E+04   0.444E-02 -.164E-02 -.115E+01   -.317E-03 0.368E-02 -.746E-02
   -.437E-02 0.165E-01 0.240E+04   -.911E-02 -.125E-01 -.240E+04   0.467E-02 -.112E-02 -.115E+01   0.764E-03 -.123E-02 -.840E-02
   -.143E+00 0.111E-01 0.809E+03   0.126E+00 -.142E-02 -.809E+03   0.285E-01 -.868E-02 -.433E+00   0.384E-02 -.455E-02 -.809E-02
   -.368E+00 0.445E-01 0.809E+03   0.360E+00 -.342E-01 -.809E+03   0.335E-01 -.107E-01 -.431E+00   -.495E-02 -.493E-02 -.841E-02
   -.476E-01 -.498E-01 0.809E+03   0.320E-01 0.566E-01 -.809E+03   0.347E-01 -.982E-02 -.431E+00   -.245E-02 -.102E-02 -.104E-01
   -.288E+00 -.104E+00 0.809E+03   0.268E+00 0.110E+00 -.809E+03   0.370E-01 -.714E-02 -.434E+00   0.342E-02 -.619E-03 -.103E-01
   -.166E+00 0.369E-02 0.809E+03   0.151E+00 0.624E-02 -.809E+03   0.332E-01 -.642E-02 -.428E+00   -.395E-03 -.741E-02 -.127E-01
   -.225E+00 0.588E-01 0.809E+03   0.206E+00 -.488E-01 -.809E+03   0.314E-01 -.707E-02 -.432E+00   0.442E-02 -.624E-02 -.110E-01
   -.297E+00 0.208E+00 0.809E+03   0.282E+00 -.208E+00 -.809E+03   0.351E-01 -.821E-02 -.429E+00   -.549E-03 0.204E-02 -.986E-02
   -.191E+00 -.218E-01 0.809E+03   0.177E+00 0.238E-01 -.809E+03   0.367E-01 -.709E-02 -.430E+00   -.355E-02 0.201E-02 -.117E-01
   -.205E+00 -.292E-02 0.809E+03   0.196E+00 0.113E-02 -.809E+03   0.367E-01 -.108E-01 -.426E+00   -.849E-02 0.748E-02 -.134E-01
   -.875E-01 0.286E-01 0.809E+03   0.703E-01 -.276E-01 -.809E+03   0.311E-01 -.112E-01 -.428E+00   0.258E-02 0.455E-02 -.131E-01
   -.149E+00 0.662E-01 0.809E+03   0.130E+00 -.636E-01 -.809E+03   0.315E-01 -.607E-02 -.434E+00   0.412E-02 -.630E-03 -.102E-01
   -.436E+00 0.516E-01 0.809E+03   0.418E+00 -.519E-01 -.809E+03   0.378E-01 -.676E-02 -.431E+00   0.176E-02 0.296E-02 -.101E-01
   -.300E+00 0.249E+00 0.809E+03   0.285E+00 -.245E+00 -.809E+03   0.331E-01 -.146E-01 -.431E+00   0.380E-03 0.182E-02 -.806E-02
   -.141E+00 0.169E+00 0.809E+03   0.132E+00 -.167E+00 -.809E+03   0.341E-01 -.152E-01 -.429E+00   -.687E-02 0.390E-02 -.101E-01
   -.905E-01 0.184E+00 0.809E+03   0.738E-01 -.179E+00 -.809E+03   0.341E-01 -.139E-01 -.435E+00   -.850E-04 0.321E-03 -.103E-01
   -.314E+00 0.742E-01 0.810E+03   0.293E+00 -.704E-01 -.809E+03   0.334E-01 -.917E-02 -.440E+00   0.659E-02 0.454E-03 -.587E-02
   -.104E-01 0.278E+00 -.808E+03   0.746E-02 -.255E+00 0.808E+03   -.331E-02 -.138E-01 0.391E+00   0.516E-02 -.130E-01 -.332E-02
   -.300E+00 -.686E-01 -.808E+03   0.294E+00 0.714E-01 0.807E+03   0.554E-02 0.927E-02 0.410E+00   0.494E-02 -.397E-02 0.317E-02
   0.300E-01 -.745E-01 -.808E+03   -.242E-01 0.752E-01 0.808E+03   -.214E-02 0.342E-02 0.385E+00   -.291E-02 -.112E-02 0.468E-02
   0.325E+00 -.204E+00 -.808E+03   -.315E+00 0.201E+00 0.807E+03   -.116E-01 0.533E-02 0.404E+00   -.355E-02 0.345E-02 0.357E-02
   0.380E+00 0.142E+00 -.808E+03   -.372E+00 -.140E+00 0.808E+03   -.102E-01 -.206E-02 0.399E+00   -.396E-02 -.145E-02 -.557E-02
   -.239E+00 0.187E+00 -.808E+03   0.235E+00 -.182E+00 0.808E+03   0.331E-02 -.770E-03 0.399E+00   0.468E-02 -.567E-02 -.293E-02
   -.523E-01 0.481E+00 -.808E+03   0.518E-01 -.470E+00 0.807E+03   -.870E-02 -.106E-01 0.404E+00   0.380E-02 -.687E-02 0.381E-02
   0.109E-01 0.295E+00 -.808E+03   -.407E-02 -.289E+00 0.808E+03   -.430E-02 -.689E-02 0.402E+00   -.106E-02 -.194E-02 0.238E-02
   0.347E+00 -.241E+00 -.809E+03   -.323E+00 0.223E+00 0.808E+03   -.209E-01 0.129E-01 0.391E+00   -.116E-01 0.113E-01 -.518E-02
   0.139E+00 -.505E+00 -.809E+03   -.133E+00 0.491E+00 0.808E+03   -.512E-02 0.176E-01 0.392E+00   -.296E-02 0.835E-02 -.609E-02
   -.667E-01 -.207E+00 -.808E+03   0.514E-01 0.196E+00 0.808E+03   0.855E-02 0.131E-01 0.395E+00   0.971E-02 0.492E-02 -.249E-02
   -.239E+00 -.485E-01 -.807E+03   0.237E+00 0.418E-01 0.807E+03   0.128E-03 0.423E-02 0.402E+00   0.658E-02 0.670E-02 0.376E-02
   -.632E-01 0.809E-01 -.807E+03   0.666E-01 -.789E-01 0.807E+03   -.225E-02 0.376E-02 0.402E+00   -.318E-03 -.454E-02 0.183E-02
   -.154E+00 -.933E-01 -.808E+03   0.156E+00 0.856E-01 0.807E+03   0.459E-02 0.690E-02 0.406E+00   -.376E-03 0.228E-02 0.234E-02
   0.367E+00 -.106E+00 -.808E+03   -.354E+00 0.101E+00 0.807E+03   -.123E-01 0.416E-02 0.405E+00   -.861E-02 0.966E-03 0.310E-02
   -.267E-01 0.320E-02 -.807E+03   0.195E-01 0.131E-02 0.807E+03   -.281E-03 0.223E-02 0.404E+00   0.948E-02 -.398E-02 0.429E-02
   0.193E+00 0.209E+00 -.240E+04   -.170E+00 -.205E+00 0.240E+04   -.302E-01 0.813E-02 0.118E+01   0.479E-02 -.753E-02 -.458E-03
   0.243E+00 -.310E+00 -.240E+04   -.220E+00 0.298E+00 0.240E+04   -.315E-01 0.179E-01 0.118E+01   0.584E-02 -.129E-03 0.377E-05
   0.160E+00 -.679E+00 -.240E+04   -.128E+00 0.661E+00 0.240E+04   -.317E-01 0.202E-01 0.118E+01   -.375E-02 0.470E-02 0.353E-02
   0.100E+00 -.972E-02 -.240E+04   -.709E-01 0.337E-02 0.240E+04   -.302E-01 0.943E-02 0.118E+01   -.254E-02 -.137E-03 0.527E-02
   0.270E+00 0.743E+00 -.240E+04   -.241E+00 -.734E+00 0.240E+04   -.282E-01 -.504E-02 0.117E+01   -.482E-03 -.698E-02 0.904E-02
   0.926E-01 0.699E+00 -.240E+04   -.672E-01 -.688E+00 0.240E+04   -.386E-01 0.721E-04 0.117E+01   0.721E-02 -.120E-01 0.803E-02
   -.295E+00 0.222E+00 -.240E+04   0.313E+00 -.224E+00 0.240E+04   -.235E-01 0.817E-02 0.118E+01   0.549E-02 -.449E-02 0.263E-02
   0.752E+00 0.244E+00 -.240E+04   -.711E+00 -.246E+00 0.240E+04   -.421E-01 0.360E-02 0.118E+01   -.640E-02 -.165E-02 0.515E-02
   0.892E+00 -.764E-01 -.240E+04   -.849E+00 0.660E-01 0.240E+04   -.459E-01 0.124E-01 0.116E+01   -.492E-02 0.131E-02 0.133E-01
   0.147E+00 0.217E-01 -.240E+04   -.118E+00 -.286E-01 0.240E+04   -.350E-01 0.102E-01 0.117E+01   0.186E-02 -.228E-02 0.329E-01
   -.393E+00 -.188E+00 -.240E+04   0.405E+00 0.176E+00 0.240E+04   -.275E-01 0.213E-01 0.117E+01   0.133E-01 -.207E-02 0.876E-02
   0.269E+00 0.805E-01 -.240E+04   -.237E+00 -.838E-01 0.240E+04   -.370E-01 0.656E-02 0.118E+01   0.145E-02 -.327E-02 0.439E-02
   0.724E+00 -.321E+00 -.240E+04   -.683E+00 0.305E+00 0.240E+04   -.463E-01 0.146E-01 0.117E+01   -.616E-03 0.231E-02 -.943E-04
   0.596E+00 -.552E+00 -.240E+04   -.555E+00 0.532E+00 0.240E+04   -.422E-01 0.113E-01 0.116E+01   -.484E-02 0.924E-02 0.106E-01
   -.393E+00 -.583E+00 -.240E+04   0.409E+00 0.565E+00 0.240E+04   -.196E-01 0.159E-01 0.117E+01   0.527E-02 0.630E-02 0.704E-02
   -.108E+00 -.450E+00 -.240E+04   0.123E+00 0.432E+00 0.240E+04   -.271E-01 0.211E-01 0.118E+01   0.938E-02 0.235E-02 0.161E-02
   0.421E-01 -.694E-02 0.325E+00   0.252E-12 0.188E-12 0.155E-10   0.208E-01 0.520E-01 -.223E+00   0.398E-01 -.188E-01 -.153E+00

 POSITION                                       TOTAL-FORCE (eV/Angst)
      0.00000      0.00000      0.00000        -0.008855      0.002205      0.031700
      2.80000      0.00000      0.00000        -0.008407      0.002235      0.029262
      5.60000      0.00000      0.00000        -0.009451      0.002654      0.029933
      8.40000      0.00000      0.00000        -0.009964      0.001965      0.029390
      9.80000      2.42487      0.00000        -0.009830      0.001073      0.030741
      1.40000      2.42487      0.00000        -0.008426      0.001319      0.030522
      4.20000      2.42487      0.00000        -0.009056      0.001269      0.029843
      7.00000      2.42487      0.00000        -0.009863      0.001277      0.030219
      8.40000      4.84974      0.00000        -0.010237      0.001188      0.030823
      0.00000      4.84974      0.00000        -0.009191      0.001719      0.030958
      2.80000      4.84974      0.00000        -0.008544      0.000997      0.030600
      5.60000      4.84974      0.00000        -0.009491      0.000816      0.029490
      7.00000      7.27461      0.00000        -0.008709      0.001446      0.031481
     -1.40000      7.27461      0.00000        -0.009203      0.002576      0.031042
      1.40000      7.27461      0.00000        -0.009247      0.002734      0.031007
      4.20000      7.27461      0.00000        -0.009686      0.001245      0.031331
      1.40000      0.80829      2.28619         0.013460     -0.003949     -0.029875
      4.20000      0.80829      2.28619         0.018566     -0.005682     -0.028725
      7.00000      0.80829      2.28619         0.015087     -0.004485     -0.028318
      9.80000      0.80829      2.28619         0.018742     -0.002400     -0.030846
      0.00000      3.23316      2.28619         0.016267     -0.004331     -0.025683
      2.80000      3.23316      2.28619         0.015363     -0.003758     -0.027768
      5.60000      3.23316      2.28619         0.017933     -0.006877     -0.027092
      8.40000      3.23316      2.28619         0.017903     -0.003504     -0.024870
     -1.40000      5.65803      2.28619         0.018197     -0.005566     -0.022680
      1.40000      5.65803      2.28619         0.015006     -0.005989     -0.024877
      4.20000      5.65803      2.28619         0.014626     -0.004451     -0.031797
      7.00000      5.65803      2.28619         0.020478     -0.004586     -0.026492
     -2.80000      8.08290      2.28619         0.017336     -0.009661     -0.026543
      0.00000      8.08290      2.28619         0.016504     -0.010176     -0.023828
      2.80000      8.08290      2.28619         0.015806     -0.008734     -0.031035
      5.60000      8.08290      2.28619         0.017404     -0.005407     -0.034628
      0.01307      1.61443      4.53089        -0.002707     -0.004251     -0.005367
      2.81239      1.61286      4.52924         0.002165      0.007628      0.006654
      5.61327      1.61299      4.53058        -0.000916      0.002590     -0.010443
      8.41387      1.61315      4.52969        -0.006439      0.005371      0.001633
     -1.38619      4.03817      4.53119        -0.008091     -0.001488     -0.002377
      1.41293      4.03792      4.53094         0.002390     -0.001534     -0.001801
      4.21323      4.03898      4.52953        -0.007082     -0.007275      0.001602
      7.01382      4.03881      4.53022        -0.000157     -0.003979      0.000272
     -2.78512      6.46184      4.53143        -0.009357      0.005369     -0.006771
      0.01358      6.46150      4.53171        -0.003474      0.011783     -0.007116
      2.81236      6.46191      4.53063         0.001400      0.006474     -0.002720
      5.61330      6.46311      4.52917         0.002773      0.003822      0.002114
     -4.18695      8.88745      4.52929        -0.000779      0.000739      0.002322
     -1.38695      8.88679      4.52979         0.004595      0.001108      0.002104
      1.41366      8.88705      4.52955        -0.009191     -0.000253      0.002369
      4.21309      8.88779      4.52882         0.000469      0.002352      0.003744
     -5.57462      9.69222      6.80757        -0.004257      0.003562      0.002848
     -2.77431      9.69170      6.80803        -0.004613      0.004792      0.003113
      0.02577      9.69190      6.80865        -0.005000      0.005882      0.000609
      2.82563      9.69235      6.80789        -0.004863      0.002554      0.003484
     -1.37424      2.41852      6.81144        -0.002027     -0.002953     -0.005664
      1.42643      2.41794      6.81119        -0.007640     -0.000809     -0.007763
      4.22533      2.41789      6.80813        -0.002229      0.001352      0.001317
      7.02658      2.41822      6.80902        -0.009096     -0.000616      0.000202
     -2.77290      4.84261      6.81258        -0.009885      0.002868     -0.011288
      0.02662      4.84229      6.81208        -0.006240      0.000685     -0.002432
      2.82600      4.84192      6.81117        -0.004008      0.007258     -0.005864
      5.62644      4.84295      6.80821        -0.005507     -0.000419      0.004789
     -4.17325      7.26726      6.80911        -0.007566      0.001351     -0.001491
     -1.37301      7.26746      6.81217        -0.007809      0.000158     -0.009343
      1.42544      7.26723      6.81112        -0.000502      0.003760     -0.005679
      4.22560      7.26675      6.80745        -0.004875      0.004954      0.003660
    total drift:                                0.102725      0.026358     -0.050849

  FREE ENERGIE OF THE ION-ELECTRON SYSTEM (eV)
  free  energy   TOTEN  =      -389.83587771 eV

  energy  without entropy=     -389.95429794  energy(sigma->0) =     -389.86548277

 d Force = 0.3669211E-03[ 0.117E-03, 0.617E-03]  d Energy =-0.4143777E-03 0.781E-03
 d Force =-0.2012360E+02[-0.201E+02,-0.201E+02]  d Ewald  =-0.2012360E+02-0.290E-05

 stress matrix after NEB project (eV)
    -77.89724     -0.12130     -0.42178
     -0.12130    -78.03784      0.10615
     -0.42178      0.10615     -1.61955
  FORCES: max atom, RMS     0.015276    0.006055
  FORCE total and by dimension    0.048440    0.011783
  Stress total and by dimension  110.276545   78.037843
 Conjugate gradient step on ions:
 trial-energy change:    0.000414  1 .order   -0.000367   -0.000617   -0.000117
  (g-gl).g = 0.322E-03      g.g   = 0.346E-03  gl.gl    = 0.700E-03
 g(Force)  = 0.346E-03   g(Stress)= 0.000E+00 ortho     = 0.243E-04
 gamma     =   0.46039
 trial     =   1.72473
 opt step  =   2.12936  (harmonic =   2.12936) maximal distance =0.00141817
 next E    =  -389.836673   (d E  =  -0.00038)

 reached required accuracy - stopping structural energy minimisation