 vasp.5.4.1 24Jun15 (build Jan 19 2018 10:32:04) complex

 executed on           IFC91_ompi date 2020.01.29  14:37:00

 INCAR:
 POTCAR:    PAW_PBE Pt 04Feb2005
 POTCAR:    PAW_PBE O 08Apr2002
 POTCAR:    PAW_PBE H 15Jun2001

 POTCAR:    PAW_PBE Pt 04Feb2005
   VRHFIN =Pt: s1d9

   TITEL  = PAW_PBE Pt 04Feb2005
   POMASS =  195.080; ZVAL   =   10.000    mass and valenz
   ENMAX  =  230.283; ENMIN  =  172.712 eV

 POTCAR:    PAW_PBE O 08Apr2002
   VRHFIN =O: s2p4

   TITEL  = PAW_PBE O 08Apr2002
   POMASS =   16.000; ZVAL   =    6.000    mass and valenz
   ENMAX  =  400.000; ENMIN  =  300.000 eV

 POTCAR:    PAW_PBE H 15Jun2001
   VRHFIN =H: ultrasoft test

   TITEL  = PAW_PBE H 15Jun2001
   POMASS =    1.000; ZVAL   =    1.000    mass and valenz
   ENMAX  =  250.000; ENMIN  =  200.000 eV

 Optimization of the real space projectors (new method)

 maximal supplied QI-value         = 14.36
 optimisation between [QCUT,QGAM] = [ 10.20, 20.39] = [ 29.12,116.47] Ry
 Optimized for a Real-space Cutoff    1.51 Angstroem

   l    n(q)    QCUT    max X(q) W(low)/X(q) W(high)/X(q)  e(spline)
   2      8    10.197    66.195    0.45E-03    0.45E-03    0.14E-06
   2      8    10.197    64.643    0.46E-03    0.46E-03    0.14E-06
   0      9    10.197    95.520    0.15E-03    0.11E-03    0.54E-07
   0      9    10.197    63.403    0.15E-03    0.11E-03    0.52E-07
   1      9    10.197    19.961    0.13E-03    0.17E-03    0.77E-07
   1      9    10.197    13.289    0.10E-03    0.15E-03    0.67E-07
 Optimization of the real space projectors (new method)

[...]

   l    n(q)    QCUT    max X(q) W(low)/X(q) W(high)/X(q)  e(spline)
   0      8    10.150    20.381    0.22E-03    0.32E-03    0.29E-06
   0      8    10.150    15.268    0.23E-03    0.35E-03    0.30E-06
   1      8    10.150     5.964    0.46E-03    0.53E-03    0.21E-06
   1      8    10.150     5.382    0.38E-03    0.45E-03    0.19E-06
 Optimization of the real space projectors (new method)

 maximal supplied QI-value         = 34.20
 optimisation between [QCUT,QGAM] = [  9.92, 20.18] = [ 27.55,114.04] Ry
 Optimized for a Real-space Cutoff    1.26 Angstroem

   l    n(q)    QCUT    max X(q) W(low)/X(q) W(high)/X(q)  e(spline)
   0      8     9.919    19.460    0.50E-03    0.23E-03    0.29E-06
   0      8     9.919    12.209    0.48E-03    0.23E-03    0.28E-06
   1      7     9.919     4.655    0.17E-03    0.75E-03    0.30E-06
  PAW_PBE Pt 04Feb2005                  :
  PAW_PBE O 08Apr2002                   :
  PAW_PBE H 15Jun2001                   :

 POSCAR: Pt  C  O  C  O  H
  positions in direct lattice
  velocities in cartesian coordinates
 exchange correlation table for  LEXCH =        8
   RHO(1)=    0.500       N(1)  =     2000
   RHO(2)=  100.500       N(2)  =     4000

 VTST: version 3.1, (03/28/14)

 CHAIN: initializing optimizer

 OPT: Using VASP Conjugate-Gradient optimizer
 CHAIN: Read ICHAIN            0

 POSCAR: Pt  C  O  C  O  H
  positions in direct lattice
  velocities in cartesian coordinates

 ion  position               nearest neighbor table
   1  0.000  0.000  0.000-   6 2.80   5 2.80  17 2.80  20 2.80   2 2.80   4 2.80  32 2.80  16 2.80
                            13 2.80
   2  0.250  0.000  0.000-   7 2.80   6 2.80  17 2.80  18 2.80   1 2.80   3 2.80  29 2.80  14 2.80
                            13 2.80
   3  0.500  0.000  0.000-   8 2.80   7 2.80  18 2.80  19 2.80   2 2.80   4 2.80  30 2.80  15 2.80
                            14 2.80
   4  0.750  0.000  0.000-   5 2.80   8 2.80  19 2.80  20 2.80   1 2.80   3 2.80  31 2.80  16 2.80
                            15 2.80
   5  1.000  0.250  0.000-   9 2.80   4 2.80  10 2.80   1 2.80  20 2.80  24 2.80  21 2.80   8 2.80
                             6 2.80
   6  0.250  0.250  0.000-  10 2.80   1 2.80  11 2.80   2 2.80  17 2.80  21 2.80  22 2.80   7 2.80
                             5 2.80
   7  0.500  0.250  0.000-  11 2.80   2 2.80  12 2.80   3 2.80  18 2.80  22 2.80  23 2.80   8 2.80
                             6 2.80
   8  0.750  0.250  0.000-  12 2.80   9 2.80   3 2.80   4 2.80  19 2.80  23 2.80  24 2.80   7 2.80
                             5 2.80
   9  1.000  0.500  0.000-   5 2.80   8 2.80  14 2.80  13 2.80  24 2.80  25 2.80  28 2.80  12 2.80
                            10 2.80
  10  0.250  0.500  0.000-   6 2.80   5 2.80  15 2.80  14 2.80  21 2.80  25 2.80  26 2.80  11 2.80
                             9 2.80
  11  0.500  0.500  0.000-   7 2.80   6 2.80  16 2.80  15 2.80  22 2.80  26 2.80  27 2.80  12 2.80
                            10 2.80
  12  0.750  0.500  0.000-   8 2.80   7 2.80  13 2.80  16 2.80  23 2.80  27 2.80  28 2.80  11 2.80
                             9 2.80
  13  1.000  0.750  0.000-  12 2.80   9 2.80  28 2.80  29 2.80  32 2.80  16 2.80  14 2.80   2 2.80
                             1 2.80
  14  0.250  0.750  0.000-   9 2.80  10 2.80  25 2.80  29 2.80  30 2.80  15 2.80  13 2.80   3 2.80
                             2 2.80
  15  0.500  0.750  0.000-  10 2.80  11 2.80  26 2.80  30 2.80  31 2.80  16 2.80  14 2.80   4 2.80
                             3 2.80
  16  0.750  0.750  0.000-  11 2.80  12 2.80  27 2.80  31 2.80  32 2.80  15 2.80  13 2.80   4 2.80
                             1 2.80
  17  0.167  0.083  0.100-  33 2.75  45 2.77  34 2.77  22 2.80  21 2.80   6 2.80   1 2.80   2 2.80
                            20 2.80  18 2.80  32 2.80  29 2.80
  18  0.417  0.083  0.100-  34 2.75  46 2.76  35 2.77  23 2.80  22 2.80   7 2.80   2 2.80   3 2.80
                            19 2.80  17 2.80  30 2.80  29 2.80
  19  0.667  0.083  0.100-  35 2.76  47 2.76  36 2.77  24 2.80  23 2.80   8 2.80   3 2.80   4 2.80
                            20 2.80  18 2.80  31 2.80  30 2.80
  20  0.917  0.083  0.100-  36 2.75  48 2.77  33 2.77  24 2.80  21 2.80   5 2.80   1 2.80   4 2.80
                            19 2.80  17 2.80  32 2.80  31 2.80
  21  0.167  0.333  0.100-  33 2.77  37 2.78  38 2.78  20 2.80  17 2.80  25 2.80  26 2.80  10 2.80
                             6 2.80   5 2.80  24 2.80  22 2.80
  22  0.417  0.333  0.100-  34 2.76  39 2.77  38 2.78  18 2.80  17 2.80  26 2.80  27 2.80  11 2.80
                             7 2.80   6 2.80  23 2.80  21 2.80
  23  0.667  0.333  0.100-  39 2.75  40 2.77  35 2.77  19 2.80  18 2.80  27 2.80  28 2.80  12 2.80
                             8 2.80   7 2.80  24 2.80  22 2.80
  24  0.917  0.333  0.100-  40 2.75  36 2.76  19 2.80  20 2.80  28 2.80  25 2.80   9 2.80   5 2.80
                             8 2.80  21 2.80  23 2.80  37 2.81
  25  0.167  0.583  0.100-  41 2.76  37 2.79  42 2.79  30 2.80  21 2.80  24 2.80  29 2.80  14 2.80
                             9 2.80  10 2.80  28 2.80  26 2.80
  26  0.417  0.583  0.100-  43 2.77  42 2.77  38 2.78  31 2.80  22 2.80  21 2.80  30 2.80  15 2.80
                            10 2.80  11 2.80  27 2.80  25 2.80
  27  0.667  0.583  0.100-  43 2.75  39 2.76  44 2.77  32 2.80  23 2.80  22 2.80  31 2.80  16 2.80
                            11 2.80  12 2.80  28 2.80  26 2.80
  28  0.917  0.583  0.100-  44 2.75  40 2.77  41 2.77  29 2.80  24 2.80  23 2.80  32 2.80  13 2.80
                             9 2.80  12 2.80  27 2.80  25 2.80
  29  0.167  0.833  0.100-  45 2.75  41 2.77  46 2.77  28 2.80  25 2.80  14 2.80  13 2.80  32 2.80
                            30 2.80   2 2.80  18 2.80  17 2.80
  30  0.417  0.833  0.100-  46 2.75  47 2.76  42 2.80  25 2.80  26 2.80  15 2.80  14 2.80  31 2.80
                            29 2.80   3 2.80  19 2.80  18 2.80
  31  0.667  0.833  0.100-  47 2.75  43 2.76  48 2.77  26 2.80  27 2.80  16 2.80  15 2.80  32 2.80
                            30 2.80   4 2.80  20 2.80  19 2.80
  32  0.917  0.833  0.100-  48 2.76  44 2.77  45 2.77  27 2.80  28 2.80  16 2.80  13 2.80  31 2.80
                            29 2.80   1 2.80  20 2.80  17 2.80
  33  0.084  0.166  0.198-  17 2.75  20 2.77  21 2.77  53 2.78  54 2.79  48 2.80  45 2.80  36 2.80
                            49 2.80  37 2.80  38 2.80  34 2.81
  34  0.335  0.166  0.198-  18 2.75  22 2.76  17 2.77  54 2.77  39 2.79  35 2.80  46 2.80  45 2.80
                            50 2.81  33 2.81  55 2.81  38 2.81
  35  0.584  0.166  0.198-  19 2.76  23 2.77  18 2.77  55 2.79  47 2.79  36 2.80  39 2.80  34 2.80
                            51 2.80  40 2.80  46 2.80  56 2.80
  36  0.834  0.167  0.198-  20 2.75  24 2.76  19 2.77  53 2.79  40 2.79  56 2.79  35 2.80  47 2.80
                            33 2.80  48 2.80  52 2.81  37 2.81
  37  0.086  0.417  0.199-  42 2.77  57 2.77  38 2.78  21 2.78  53 2.78  25 2.79  41 2.80  33 2.80
                            24 2.81  40 2.81  36 2.81  58 2.85
  38  0.334  0.417  0.199-  37 2.78  42 2.78  26 2.78  22 2.78  54 2.78  21 2.78  59 2.79  43 2.80
                            33 2.80  34 2.81  39 2.81  58 2.83
  39  0.584  0.416  0.198-  23 2.75  27 2.76  22 2.77  59 2.77  34 2.79  35 2.80  40 2.80  44 2.80
                            55 2.80  43 2.81  60 2.81  38 2.81
  40  0.834  0.416  0.198-  24 2.75  28 2.77  23 2.77  57 2.79  36 2.79  60 2.79  35 2.80  39 2.80
                            44 2.80  41 2.80  56 2.80  37 2.81
  41  0.084  0.666  0.198-  25 2.76  29 2.77  28 2.77  61 2.79  57 2.79  62 2.80  44 2.80  45 2.80
                            42 2.80  40 2.80  46 2.80  37 2.80
  42  0.333  0.665  0.199-  37 2.77  26 2.77  62 2.77  38 2.78  63 2.79  25 2.79  30 2.80  41 2.80
                            43 2.80  46 2.81  47 2.81  58 2.84
  43  0.585  0.666  0.198-  27 2.75  31 2.76  26 2.77  63 2.78  59 2.79  48 2.80  44 2.80  38 2.80
                            47 2.80  42 2.80  39 2.81  64 2.81
  44  0.834  0.666  0.198-  28 2.75  32 2.77  27 2.77  64 2.79  41 2.80  43 2.80  60 2.80  39 2.80
                            40 2.80  45 2.80  61 2.80  48 2.81
  45  0.085  0.916  0.198-  29 2.75  17 2.77  32 2.77  49 2.79  41 2.80  33 2.80  61 2.80  46 2.80
                            50 2.80  34 2.80  44 2.80  48 2.81
  46  0.335  0.916  0.198-  30 2.75  18 2.76  29 2.77  62 2.79  47 2.79  50 2.79  35 2.80  34 2.80
                            45 2.80  41 2.80  51 2.81  42 2.81
  47  0.584  0.917  0.198-  31 2.75  19 2.76  30 2.76  63 2.78  46 2.79  51 2.79  35 2.79  36 2.80
                            48 2.80  43 2.80  52 2.81  42 2.81
  48  0.834  0.916  0.198-  32 2.76  20 2.77  31 2.77  52 2.79  43 2.80  33 2.80  64 2.80  47 2.80
                            36 2.80  49 2.80  45 2.81  44 2.81
  49  0.002  0.999  0.298-  64 2.79  45 2.79  54 2.79  53 2.79  61 2.79  52 2.80  50 2.80  33 2.80
                            48 2.80
  50  0.252  0.999  0.298-  54 2.77  62 2.78  46 2.79  61 2.80  51 2.80  55 2.80  49 2.80  45 2.80
                            34 2.81
  51  0.502  1.000  0.298-  55 2.79  63 2.79  62 2.79  47 2.79  56 2.79  35 2.80  50 2.80  52 2.80
                            46 2.81
  52  0.752  0.999  0.298-  63 2.78  53 2.78  48 2.79  51 2.80  49 2.80  56 2.80  64 2.80  36 2.81
                            47 2.81
  53  0.000  0.247  0.297-  52 2.78  33 2.78  37 2.78  36 2.79  49 2.79  56 2.79  54 2.82  57 2.82
                            58 2.83
  54  0.252  0.247  0.297-  34 2.77  50 2.77  38 2.78  33 2.79  49 2.79  55 2.79  53 2.82  58 2.82
[...]
  Fock        0.00000     0.00000     0.00000     0.00000     0.00000     0.00000
  vdW       -22.93407   -22.93359   -16.23167    -0.00171     0.00042    -0.00070
  Total     -78.93234   -78.87373    -3.65395    -0.14267     0.09600    -0.28629
  in kB     -50.91978   -50.88196    -2.35719    -0.09204     0.06193    -0.18469

 VOLUME and BASIS-vectors are now :
  energy-cutoff  :      400.00
  volume of cell :     2483.59
      direct lattice vectors                 reciprocal lattice vectors
    11.200000000  0.000000000  0.000000000     0.089285714  0.051549131  0.000000000
    -5.600000000  9.699484522  0.000000000     0.000000000  0.103098262  0.000000000
     0.000000000  0.000000000 22.861904266     0.000000000  0.000000000  0.043740888

  length of vectors
    11.200000000 11.200000000 22.861904266     0.103098262  0.103098262  0.043740888

 FORCES acting on ions
    electron-ion (+dipol)            ewald-force                    non-local-force                 convergence-correction
   -.142E-02 0.919E-01 0.241E+04   -.441E-02 -.855E-01 -.241E+04   0.228E-02 -.482E-02 -.113E+01   -.224E-02 -.214E-02 -.392E-02
   0.313E-02 0.755E-01 0.241E+04   -.852E-02 -.708E-01 -.241E+04   0.113E-02 -.327E-02 -.116E+01   0.129E-02 0.115E-02 -.623E-02
   -.147E-01 0.169E-01 0.241E+04   0.722E-02 0.157E-01 -.241E+04   0.241E-02 -.101E-01 -.116E+01   0.169E-02 -.286E-02 -.463E-02
   -.218E-01 0.421E-02 0.241E+04   0.721E-02 0.640E-02 -.241E+04   0.611E-02 -.172E-02 -.114E+01   -.748E-03 -.608E-02 -.318E-02
   0.349E-01 -.143E-01 0.241E+04   -.597E-01 0.166E-01 -.241E+04   0.916E-02 -.421E-02 -.115E+01   0.150E-02 -.790E-03 -.451E-02
   0.185E-01 0.986E-02 0.241E+04   -.102E-01 -.967E-02 -.241E+04   -.718E-02 -.433E-02 -.116E+01   0.186E-02 0.280E-02 -.586E-02
   -.552E-01 0.318E-02 0.241E+04   0.743E-01 -.181E-01 -.241E+04   -.483E-02 0.536E-02 -.116E+01   -.195E-02 0.188E-02 -.465E-02
   -.263E-01 -.228E-01 0.241E+04   -.271E-02 0.154E-01 -.241E+04   0.102E-01 0.238E-02 -.115E+01   -.142E-02 -.165E-02 -.344E-02
   0.148E-01 -.258E-01 0.241E+04   -.327E-01 0.119E-01 -.241E+04   0.432E-02 0.632E-02 -.115E+01   0.847E-03 0.144E-02 -.487E-02
   0.420E-01 -.333E-01 0.241E+04   -.532E-01 0.317E-01 -.241E+04   0.297E-02 -.101E-03 -.111E+01   0.467E-02 0.288E-02 -.523E-02
   -.200E-01 -.400E-01 0.241E+04   0.198E-01 0.211E-01 -.241E+04   0.243E-02 0.106E-01 -.116E+01   -.164E-03 0.426E-02 -.443E-02
   -.718E-01 -.443E-01 0.241E+04   0.675E-01 0.370E-01 -.241E+04   0.436E-02 0.192E-02 -.115E+01   -.535E-02 0.229E-02 -.323E-02
   0.152E-01 0.144E-01 0.241E+04   -.211E-01 -.122E-01 -.241E+04   0.657E-03 0.317E-03 -.113E+01   -.295E-02 -.154E-03 -.431E-02
   0.253E-01 0.273E-01 0.241E+04   -.278E-01 -.995E-02 -.241E+04   -.349E-02 -.739E-02 -.116E+01   0.410E-02 0.541E-04 -.653E-02
   0.759E-02 -.570E-02 0.241E+04   -.275E-01 0.227E-01 -.241E+04   0.108E-01 -.449E-02 -.115E+01   0.380E-02 -.133E-02 -.457E-02
   -.848E-01 -.250E-01 0.241E+04   0.778E-01 0.265E-01 -.241E+04   0.688E-02 0.205E-02 -.113E+01   -.495E-02 -.175E-02 -.247E-02
   0.325E-01 0.493E+00 0.834E+03   -.570E-01 -.485E+00 -.834E+03   0.186E-01 -.917E-02 -.444E+00   -.507E-03 0.145E-03 -.210E-01
   -.567E+00 -.657E-02 0.833E+03   0.560E+00 0.817E-04 -.833E+03   0.262E-01 -.230E-02 -.440E+00   0.165E-02 0.144E-02 -.209E-01
   0.144E+00 -.242E+00 0.833E+03   -.149E+00 0.255E+00 -.833E+03   0.151E-01 -.538E-02 -.442E+00   0.148E-02 -.288E-02 -.199E-01
   -.210E+00 0.256E+00 0.834E+03   0.204E+00 -.246E+00 -.833E+03   0.331E-01 -.679E-02 -.441E+00   -.267E-02 -.397E-02 -.210E-01
   0.424E-03 -.152E-01 0.834E+03   -.172E-01 0.239E-01 -.834E+03   0.251E-01 0.262E-01 -.340E+00   0.227E-02 0.175E-02 -.211E-01
   0.729E+00 -.494E+00 0.834E+03   -.769E+00 0.510E+00 -.833E+03   -.114E-01 0.134E-01 -.416E+00   0.146E-02 0.451E-02 -.191E-01
   -.439E+00 0.342E+00 0.833E+03   0.440E+00 -.337E+00 -.833E+03   0.207E-01 -.126E-01 -.441E+00   -.143E-02 0.272E-02 -.177E-01
   -.821E+00 -.553E+00 0.833E+03   0.848E+00 0.577E+00 -.833E+03   0.494E-01 0.110E-01 -.421E+00   -.229E-02 -.103E-02 -.188E-01
   0.382E-01 -.124E+00 0.834E+03   -.484E-01 0.121E+00 -.834E+03   0.500E-01 -.170E-01 -.339E+00   0.262E-02 0.130E-03 -.215E-01
   0.166E-01 -.104E+00 0.834E+03   -.380E-01 0.106E+00 -.834E+03   -.655E-02 -.233E-01 -.333E+00   0.488E-02 0.244E-02 -.197E-01
   -.489E+00 -.390E+00 0.834E+03   0.476E+00 0.396E+00 -.833E+03   0.196E-01 0.516E-02 -.438E+00   -.210E-02 0.276E-02 -.179E-01
   -.139E+00 -.259E+00 0.833E+03   0.143E+00 0.267E+00 -.833E+03   0.266E-01 0.532E-02 -.436E+00   -.540E-02 -.746E-03 -.177E-01
   0.168E+00 0.258E+00 0.834E+03   -.180E+00 -.272E+00 -.833E+03   0.189E-01 -.887E-02 -.439E+00   -.807E-03 0.157E-04 -.209E-01
   0.854E-02 0.113E+01 0.833E+03   -.208E-01 -.117E+01 -.833E+03   0.193E-01 -.388E-01 -.419E+00   0.560E-02 -.539E-03 -.209E-01
   -.472E+00 0.493E-01 0.834E+03   0.461E+00 -.508E-01 -.833E+03   0.295E-01 -.128E-01 -.442E+00   0.816E-03 -.327E-02 -.205E-01
   -.314E+00 0.179E+00 0.833E+03   0.308E+00 -.175E+00 -.832E+03   0.253E-01 -.509E-02 -.428E+00   -.565E-02 -.349E-02 -.200E-01
   0.702E+00 0.658E+01 -.766E+03   -.684E+00 -.656E+01 0.766E+03   -.180E-01 -.180E-01 0.391E+00   0.173E-02 0.199E-02 -.175E-01
   -.320E+01 0.363E+01 -.768E+03   0.321E+01 -.360E+01 0.768E+03   -.747E-02 -.373E-01 0.452E+00   0.161E-02 0.560E-02 -.140E-01
   -.639E+00 -.167E+00 -.776E+03   0.632E+00 0.160E+00 0.776E+03   0.636E-02 0.428E-02 0.372E+00   -.730E-03 0.260E-02 -.165E-01
   0.331E+01 0.265E+01 -.769E+03   -.332E+01 -.261E+01 0.769E+03   0.587E-02 -.382E-01 0.448E+00   -.178E-02 -.225E-02 -.188E-01
   0.765E+01 0.368E+01 -.767E+03   -.751E+01 -.360E+01 0.767E+03   -.140E+00 -.817E-01 0.247E+00   0.313E-02 0.236E-02 -.140E-01
   -.577E+01 0.359E+01 -.766E+03   0.566E+01 -.354E+01 0.766E+03   0.993E-01 -.571E-01 0.262E+00   0.572E-02 0.587E-02 -.101E-01
   -.532E+01 0.114E+01 -.768E+03   0.528E+01 -.117E+01 0.768E+03   0.391E-01 0.224E-01 0.452E+00   -.246E-02 0.627E-02 -.114E-01
   0.357E+01 0.921E+00 -.770E+03   -.354E+01 -.947E+00 0.770E+03   -.222E-01 0.250E-01 0.449E+00   -.602E-02 0.268E-02 -.160E-01
   0.574E+01 -.275E+01 -.768E+03   -.572E+01 0.275E+01 0.768E+03   -.155E-01 -.740E-02 0.388E+00   -.200E-02 -.187E-02 -.169E-01
   0.753E+00 -.765E+01 -.768E+03   -.753E+00 0.751E+01 0.768E+03   -.743E-02 0.134E+00 0.245E+00   0.860E-02 -.135E-02 -.125E-01
   -.565E+01 -.381E+01 -.766E+03   0.563E+01 0.380E+01 0.766E+03   0.215E-01 0.143E-01 0.387E+00   0.105E-02 -.327E-02 -.132E-01
   -.912E+00 -.146E+01 -.774E+03   0.920E+00 0.146E+01 0.773E+03   0.169E-02 0.117E-01 0.411E+00   -.764E-02 -.489E-02 -.164E-01
   0.128E+01 0.146E+01 -.774E+03   -.126E+01 -.145E+01 0.773E+03   -.171E-01 -.749E-02 0.410E+00   -.129E-02 -.128E-02 -.189E-01
   0.127E+01 -.363E+01 -.770E+03   -.123E+01 0.362E+01 0.769E+03   -.346E-01 0.416E-02 0.451E+00   0.288E-02 0.467E-03 -.163E-01
   -.108E+01 -.460E+01 -.769E+03   0.103E+01 0.458E+01 0.768E+03   0.380E-01 0.269E-01 0.457E+00   0.359E-02 -.563E-02 -.173E-01
   -.135E+01 0.534E+00 -.773E+03   0.135E+01 -.526E+00 0.773E+03   0.598E-02 -.266E-02 0.416E+00   -.447E-02 -.701E-02 -.189E-01
   0.414E+00 0.147E+02 -.237E+04   -.393E+00 -.147E+02 0.237E+04   -.236E-01 0.200E-01 0.111E+01   -.145E-02 -.106E-02 0.160E-02
   -.786E+00 0.221E+01 -.237E+04   0.801E+00 -.222E+01 0.237E+04   -.172E-01 -.409E-02 0.111E+01   0.317E-02 0.440E-02 0.629E-03
   0.673E+00 -.144E+02 -.237E+04   -.639E+00 0.144E+02 0.237E+04   -.375E-01 0.227E-01 0.111E+01   0.118E-02 -.420E-03 0.991E-04
   0.240E+00 -.243E+01 -.237E+04   -.225E+00 0.241E+01 0.237E+04   -.928E-02 0.211E-01 0.111E+01   -.142E-02 -.520E-02 -.606E-03
   0.239E+02 0.320E+02 -.234E+04   -.240E+02 -.322E+02 0.233E+04   0.500E-01 0.176E+00 0.118E+01   0.261E-02 0.424E-02 0.189E-02
   -.196E+02 0.385E+02 -.233E+04   0.197E+02 -.386E+02 0.233E+04   -.861E-01 0.985E-01 0.848E+00   0.500E-02 0.943E-02 0.167E-02
   -.149E+02 0.850E+01 -.237E+04   0.149E+02 -.850E+01 0.236E+04   0.501E-02 -.152E-01 0.109E+01   -.175E-02 0.710E-02 0.504E-03
   0.107E+02 0.554E+01 -.237E+04   -.106E+02 -.555E+01 0.237E+04   -.351E-01 0.525E-02 0.114E+01   -.368E-02 0.238E-02 -.342E-03
   0.382E+02 0.342E-01 -.234E+04   -.384E+02 -.381E-01 0.234E+04   0.167E+00 0.199E-02 0.128E+01   0.107E-02 -.396E-03 0.573E-03
   0.123E+02 -.231E+01 -.225E+04   -.123E+02 0.233E+01 0.225E+04   0.600E-01 -.238E-01 0.259E+01   0.770E-02 0.172E-02 0.297E-02
   -.437E+02 0.150E+00 -.233E+04   0.439E+02 -.148E+00 0.233E+04   -.188E+00 -.580E-02 0.948E+00   0.808E-03 0.184E-02 -.173E-02
   -.372E+01 0.307E+00 -.237E+04   0.374E+01 -.310E+00 0.237E+04   -.135E-01 0.856E-03 0.112E+01   -.796E-02 -.348E-03 -.254E-02
   0.102E+02 -.546E+01 -.237E+04   -.102E+02 0.547E+01 0.237E+04   -.141E-01 -.520E-02 0.114E+01   -.426E-02 -.445E-02 -.788E-03
   0.222E+02 -.323E+02 -.234E+04   -.223E+02 0.324E+02 0.234E+04   0.275E-01 -.146E+00 0.115E+01   0.605E-02 -.378E-02 0.120E-02
   -.175E+02 -.382E+02 -.233E+04   0.175E+02 0.383E+02 0.233E+04   -.909E-01 -.987E-01 0.867E+00   0.447E-02 -.699E-02 -.223E-02
   -.145E+02 -.821E+01 -.237E+04   0.146E+02 0.822E+01 0.237E+04   -.197E-01 -.596E-02 0.110E+01   -.509E-02 -.800E-02 -.150E-02
   0.601E+02 0.346E+01 -.152E+04   -.107E+03 -.597E+01 0.152E+04   0.470E+02 0.252E+01 0.239E+01   0.185E-02 0.247E-03 -.905E-03
   -.536E+02 0.684E+02 -.256E+03   0.587E+02 -.748E+02 0.257E+03   -.508E+01 0.643E+01 -.546E+00   0.172E-03 0.220E-03 0.465E-04
   -.461E+02 -.733E+02 -.258E+03   0.504E+02 0.802E+02 0.259E+03   -.438E+01 -.690E+01 -.919E+00   0.167E-03 -.143E-03 0.213E-04
   -.376E+02 -.203E+01 -.372E+00   0.142E-12 0.227E-12 -.136E-10   0.377E+02 0.198E+01 0.105E+01   0.104E-01 0.108E-02 -.639E+00

 POSITION                                       TOTAL-FORCE (eV/Angst)
      0.00000      0.00000      0.00000        -0.007686      0.000105      0.030742
      2.80000      0.00000      0.00000        -0.004740      0.003365      0.024744
      5.60000      0.00000      0.00000        -0.005162      0.020381      0.011011
      8.40000      0.00000      0.00000        -0.011103      0.003470      0.021749
      9.80000      2.42487      0.00000        -0.016017     -0.002077      0.030714
      1.40000      2.42487      0.00000         0.001249     -0.000671      0.031934
      4.20000      2.42487      0.00000         0.010442     -0.007056      0.013989
      7.00000      2.42487      0.00000        -0.022077     -0.005930      0.011486
      8.40000      4.84974      0.00000        -0.014579     -0.005398      0.030529
      0.00000      4.84974      0.00000        -0.005444      0.001955      0.030665
      2.80000      4.84974      0.00000         0.000317     -0.003320      0.030696
      5.60000      4.84974      0.00000        -0.007183     -0.002377      0.022558
      7.00000      7.27461      0.00000        -0.010141      0.003017      0.031516
     -1.40000      7.27461      0.00000        -0.003725      0.010714      0.033487
      1.40000      7.27461      0.00000        -0.007084      0.011909      0.031075
      4.20000      7.27461      0.00000        -0.006902      0.002522      0.030658
      1.40000      0.80829      2.28619        -0.008080     -0.000574     -0.033182
      4.20000      0.80829      2.28619         0.019539     -0.006628     -0.049076
      7.00000      0.80829      2.28619         0.009600      0.005826     -0.048065
      9.80000      0.80829      2.28619         0.023155     -0.000263     -0.043786
      0.00000      3.23316      2.28619         0.008845      0.037209      0.043290
      2.80000      3.23316      2.28619        -0.051152      0.034507      0.004523
      5.60000      3.23316      2.28619         0.019035     -0.004737     -0.040452
      8.40000      3.23316      2.28619         0.072474      0.034334      0.003148
     -1.40000      5.65803      2.28619         0.040533     -0.018789      0.037907
      1.40000      5.65803      2.28619        -0.024832     -0.018619      0.050905
      4.20000      5.65803      2.28619         0.003012      0.013931     -0.036692
      7.00000      5.65803      2.28619         0.022645      0.013076     -0.035180
     -2.80000      8.08290      2.28619         0.004096     -0.022316     -0.033520
      0.00000      8.08290      2.28619         0.010829     -0.073763      0.005844
      2.80000      8.08290      2.28619         0.017319     -0.016721     -0.036528
      5.60000      8.08290      2.28619         0.011106     -0.003346     -0.023786
      0.00984      1.61350      4.53185         0.000413     -0.001853     -0.002218
      2.80969      1.61693      4.52670        -0.000913      0.002230      0.001297
      5.60880      1.61428      4.53153        -0.003153      0.000775     -0.006588
      8.40876      1.61662      4.52644        -0.003738     -0.004898      0.000991
     -1.38167      4.04545      4.54585         0.000477     -0.000336      0.005223
      1.40011      4.04461      4.54792        -0.003410      0.002686     -0.006503
      4.20668      4.03832      4.52645         0.000170     -0.001003     -0.000076
      7.01056      4.03848      4.52706        -0.004015      0.002273      0.001294
     -2.79101      6.46562      4.53270        -0.001790     -0.002262     -0.001889
      0.00847      6.45410      4.54830         0.000304     -0.005519     -0.001826
      2.80943      6.46457      4.53303         0.000129      0.002302     -0.000272
      5.60907      6.46307      4.52933        -0.000312      0.000371     -0.001528
     -4.18889      8.89013      4.52912        -0.001218      0.001139     -0.003661
     -1.38887      8.88876      4.52728        -0.002536     -0.000858      0.002335
      1.40647      8.88724      4.52636        -0.000767      0.002133      0.001668
      4.20807      8.88962      4.52840        -0.001284     -0.000754      0.000265
     -5.58207      9.69147      6.81051        -0.006010     -0.002219     -0.000759
     -2.78125      9.69620      6.81006        -0.001052      0.000767      0.000587
      0.01908      9.69583      6.81103        -0.004072      0.001486      0.000614
      2.81672      9.69321      6.80927         0.002342     -0.000315      0.002601
     -1.38649      2.40774      6.80770        -0.003236      0.001795      0.001732
      1.42135      2.41004      6.81166        -0.001549     -0.006682     -0.000561
      4.21774      2.42096      6.81080         0.002963     -0.006165     -0.000803
      7.01760      2.41941      6.80996        -0.006897     -0.001671      0.002361
     -2.79256      4.84585      6.80917        -0.007318     -0.001613     -0.000592
      0.01340      4.84346      6.87727        -0.005525      0.000238      0.003495
      2.82898      4.84766      6.81130         0.000809     -0.000811      0.002476
      5.61753      4.84464      6.80982        -0.001811     -0.001394      0.000218
     -4.18319      7.27141      6.81071        -0.006342      0.000617      0.000815
     -1.38661      7.28007      6.81189        -0.007282      0.003422     -0.002383
      1.42472      7.27836      6.81395        -0.003037      0.000691      0.001518
      4.22005      7.27152      6.81178        -0.002733     -0.004689     -0.000142
      0.11410      4.80224      9.40103         0.019369      0.014228     -0.174441
      0.74461      4.05655      9.47030        -0.010603      0.007194     -0.004157
      0.66174      5.60540      9.51340        -0.004661     -0.005039     -0.003995
    total drift:                                0.122742     -0.047019      0.042995

  FREE ENERGIE OF THE ION-ELECTRON SYSTEM (eV)
  free  energy   TOTEN  =      -404.44345426 eV

  energy  without entropy=     -404.55004802  energy(sigma->0) =     -404.47010270

 d Force = 0.8123196E-04[ 0.413E-04, 0.121E-03]  d Energy =-0.2499259E-03 0.331E-03
 d Force =-0.8180084E+01[-0.818E+01,-0.818E+01]  d Ewald  =-0.8180082E+01-0.217E-05

 stress matrix after NEB project (eV)
    -78.93234     -0.14267     -0.28629
     -0.14267    -78.87373      0.09600
     -0.28629      0.09600     -3.65395
  FORCES: max atom, RMS     0.013470    0.003990
  FORCE total and by dimension    0.032661    0.010603
  Stress total and by dimension  111.646556   78.932340
 Conjugate gradient step on ions:
 trial-energy change:    0.000250  1 .order   -0.000081   -0.000121   -0.000041
  (g-gl).g = 0.123E-03      g.g   = 0.122E-03  gl.gl    = 0.174E-03
 g(Force)  = 0.122E-03   g(Stress)= 0.000E+00 ortho     =-0.336E-05
 gamma     =   0.70806
 trial     =   1.00912
 opt step  =   1.53198  (harmonic =   1.53198) maximal distance =0.00132498
 next E    =  -404.443796   (d E  =  -0.00009)

 reached required accuracy - stopping structural energy minimisation